10	5
0	3	1	3	2
1	1	9
2	1	7
3	1	5
4	1	7
5	1	4
6	1	11
7	1	10
8	2	4	6
9	2	8	5
10	1	11
11	0
0	0	0	0	0	0	0
1	4	0	0	4	0	0
2	6	2	5	1	0	2
3	5	0	2	5	2	1
4	4	2	1	4	2	4
5	5	5	0	2	1	4
6	9	5	3	0	0	5
7	1	5	5	5	4	2
8	3	1	0	2	3	0
9	7	3	4	4	3	1
10	5	3	4	0	1	3
11	0	0	0	0	0	0
6	7	8	4	7
